\Problem name: compact

Minimize
OBJROW: C
Subject To
ord(0,1):  - x(0,0) + x(0,1) >= 2
ord(0,2):  - x(0,1) + x(0,3) >= 3
ord(0,3):  x(0,2) - x(0,3) >= 4
ord(1,1):  - x(1,1) + x(1,2) >= 7
ord(1,2):  x(1,0) - x(1,2) >= 3
ord(1,3):  - x(1,0) + x(1,3) >= 9
ord(2,1):  x(2,0) - x(2,1) >= 1
ord(2,2):  - x(2,0) + x(2,2) >= 8
ord(2,3):  - x(2,2) + x(2,3) >= 1
triangle2(0,1,0):  y(0,1,0) + y(1,0,0) = 1
triangle2(0,1,1):  y(0,1,1) + y(1,0,1) = 1
triangle2(0,1,2):  y(0,1,2) + y(1,0,2) = 1
triangle2(0,1,3):  y(0,1,3) + y(1,0,3) = 1
triangle2(0,2,0):  y(0,2,0) + y(2,0,0) = 1
triangle2(0,2,1):  y(0,2,1) + y(2,0,1) = 1
triangle2(0,2,2):  y(0,2,2) + y(2,0,2) = 1
triangle2(0,2,3):  y(0,2,3) + y(2,0,3) = 1
triangle2(1,2,0):  y(1,2,0) + y(2,1,0) = 1
triangle2(1,2,1):  y(1,2,1) + y(2,1,1) = 1
triangle2(1,2,2):  y(1,2,2) + y(2,1,2) = 1
triangle2(1,2,3):  y(1,2,3) + y(2,1,3) = 1
MCLinV(0,1,0):  x(0,0) - v(0,1,0) - x(1,0) = 9
MCLinV(1,0,0):  - x(0,0) - v(1,0,0) + x(1,0) = 2
MCLin1(0,1,0):  u(0,1,0) >= -0
MCLin2(0,1,0):  -45 y(1,0,0) - u(0,1,0) <= -0
MCLin3(0,1,0):  20 y(1,0,0) + v(0,1,0) - u(0,1,0) <= 20
MCLin4(0,1,0):  20 y(1,0,0) - u(0,1,0) >= -0
MCLin5(0,1,0):  -45 y(1,0,0) + v(0,1,0) - u(0,1,0) >= -45
MCLin6(1,0,0):  u(1,0,0) >= -0
MCLin7(1,0,0):  -31 y(0,1,0) - u(1,0,0) <= -0
MCLin8(1,0,0):  34 y(0,1,0) + v(1,0,0) - u(1,0,0) <= 34
MCLin9(1,0,0):  34 y(0,1,0) - u(1,0,0) >= -0
MCLin10(1,0,0):  -31 y(0,1,0) + v(1,0,0) - u(1,0,0) >= -31
MCLinV(0,1,1):  x(0,1) - v(0,1,1) - x(1,1) = 7
MCLinV(1,0,1):  - x(0,1) - v(1,0,1) + x(1,1) = 3
MCLin1(0,1,1):  u(0,1,1) >= -0
MCLin2(0,1,1):  -31 y(1,0,1) - u(0,1,1) <= -0
MCLin3(0,1,1):  34 y(1,0,1) + v(0,1,1) - u(0,1,1) <= 34
MCLin4(0,1,1):  34 y(1,0,1) - u(0,1,1) >= -0
MCLin5(0,1,1):  -31 y(1,0,1) + v(0,1,1) - u(0,1,1) >= -31
MCLin6(1,0,1):  u(1,0,1) >= -0
MCLin7(1,0,1):  -44 y(0,1,1) - u(1,0,1) <= -0
MCLin8(1,0,1):  21 y(0,1,1) + v(1,0,1) - u(1,0,1) <= 21
MCLin9(1,0,1):  21 y(0,1,1) - u(1,0,1) >= -0
MCLin10(1,0,1):  -44 y(0,1,1) + v(1,0,1) - u(1,0,1) >= -44
MCLinV(0,1,2):  x(0,2) - v(0,1,2) - x(1,2) = 3
MCLinV(1,0,2):  - x(0,2) - v(1,0,2) + x(1,2) = 5
MCLin1(0,1,2):  u(0,1,2) >= -0
MCLin2(0,1,2):  -27 y(1,0,2) - u(0,1,2) <= -0
MCLin3(0,1,2):  38 y(1,0,2) + v(0,1,2) - u(0,1,2) <= 38
MCLin4(0,1,2):  38 y(1,0,2) - u(0,1,2) >= -0
MCLin5(0,1,2):  -27 y(1,0,2) + v(0,1,2) - u(0,1,2) >= -27
MCLin6(1,0,2):  u(1,0,2) >= -0
MCLin7(1,0,2):  -46 y(0,1,2) - u(1,0,2) <= -0
MCLin8(1,0,2):  19 y(0,1,2) + v(1,0,2) - u(1,0,2) <= 19
MCLin9(1,0,2):  19 y(0,1,2) - u(1,0,2) >= -0
MCLin10(1,0,2):  -46 y(0,1,2) + v(1,0,2) - u(1,0,2) >= -46
MCLinV(0,1,3):  x(0,3) - v(0,1,3) - x(1,3) = 8
MCLinV(1,0,3):  - x(0,3) - v(1,0,3) + x(1,3) = 4
MCLin1(0,1,3):  u(0,1,3) >= -0
MCLin2(0,1,3):  -48 y(1,0,3) - u(0,1,3) <= -0
MCLin3(0,1,3):  17 y(1,0,3) + v(0,1,3) - u(0,1,3) <= 17
MCLin4(0,1,3):  17 y(1,0,3) - u(0,1,3) >= -0
MCLin5(0,1,3):  -48 y(1,0,3) + v(0,1,3) - u(0,1,3) >= -48
MCLin6(1,0,3):  u(1,0,3) >= -0
MCLin7(1,0,3):  -29 y(0,1,3) - u(1,0,3) <= -0
MCLin8(1,0,3):  36 y(0,1,3) + v(1,0,3) - u(1,0,3) <= 36
MCLin9(1,0,3):  36 y(0,1,3) - u(1,0,3) >= -0
MCLin10(1,0,3):  -29 y(0,1,3) + v(1,0,3) - u(1,0,3) >= -29
MCLinV(0,2,0):  x(0,0) - v(0,2,0) - x(2,0) = 8
MCLinV(2,0,0):  - x(0,0) - v(2,0,0) + x(2,0) = 2
MCLin1(0,2,0):  u(0,2,0) >= -0
MCLin2(0,2,0):  -50 y(2,0,0) - u(0,2,0) <= -0
MCLin3(0,2,0):  30 y(2,0,0) + v(0,2,0) - u(0,2,0) <= 30
MCLin4(0,2,0):  30 y(2,0,0) - u(0,2,0) >= -0
MCLin5(0,2,0):  -50 y(2,0,0) + v(0,2,0) - u(0,2,0) >= -50
MCLin6(2,0,0):  u(2,0,0) >= -0
MCLin7(2,0,0):  -40 y(0,2,0) - u(2,0,0) <= -0
MCLin8(2,0,0):  40 y(0,2,0) + v(2,0,0) - u(2,0,0) <= 40
MCLin9(2,0,0):  40 y(0,2,0) - u(2,0,0) >= -0
MCLin10(2,0,0):  -40 y(0,2,0) + v(2,0,0) - u(2,0,0) >= -40
MCLinV(0,2,1):  x(0,1) - v(0,2,1) - x(2,1) = 1
MCLinV(2,0,1):  - x(0,1) - v(2,0,1) + x(2,1) = 3
MCLin1(0,2,1):  u(0,2,1) >= -0
MCLin2(0,2,1):  -40 y(2,0,1) - u(0,2,1) <= -0
MCLin3(0,2,1):  40 y(2,0,1) + v(0,2,1) - u(0,2,1) <= 40
MCLin4(0,2,1):  40 y(2,0,1) - u(0,2,1) >= -0
MCLin5(0,2,1):  -40 y(2,0,1) + v(0,2,1) - u(0,2,1) >= -40
MCLin6(2,0,1):  u(2,0,1) >= -0
MCLin7(2,0,1):  -44 y(0,2,1) - u(2,0,1) <= -0
MCLin8(2,0,1):  36 y(0,2,1) + v(2,0,1) - u(2,0,1) <= 36
MCLin9(2,0,1):  36 y(0,2,1) - u(2,0,1) >= -0
MCLin10(2,0,1):  -44 y(0,2,1) + v(2,0,1) - u(2,0,1) >= -44
MCLinV(0,2,2):  x(0,2) - v(0,2,2) - x(2,2) = 1
MCLinV(2,0,2):  - x(0,2) - v(2,0,2) + x(2,2) = 5
MCLin1(0,2,2):  u(0,2,2) >= -0
MCLin2(0,2,2):  -42 y(2,0,2) - u(0,2,2) <= -0
MCLin3(0,2,2):  38 y(2,0,2) + v(0,2,2) - u(0,2,2) <= 38
MCLin4(0,2,2):  38 y(2,0,2) - u(0,2,2) >= -0
MCLin5(0,2,2):  -42 y(2,0,2) + v(0,2,2) - u(0,2,2) >= -42
MCLin6(2,0,2):  u(2,0,2) >= -0
MCLin7(2,0,2):  -44 y(0,2,2) - u(2,0,2) <= -0
MCLin8(2,0,2):  36 y(0,2,2) + v(2,0,2) - u(2,0,2) <= 36
MCLin9(2,0,2):  36 y(0,2,2) - u(2,0,2) >= -0
MCLin10(2,0,2):  -44 y(0,2,2) + v(2,0,2) - u(2,0,2) >= -44
MCLinV(0,2,3):  x(0,3) - v(0,2,3) - x(2,3) = 2
MCLinV(2,0,3):  - x(0,3) - v(2,0,3) + x(2,3) = 4
MCLin1(0,2,3):  u(0,2,3) >= -0
MCLin2(0,2,3):  -48 y(2,0,3) - u(0,2,3) <= -0
MCLin3(0,2,3):  32 y(2,0,3) + v(0,2,3) - u(0,2,3) <= 32
MCLin4(0,2,3):  32 y(2,0,3) - u(0,2,3) >= -0
MCLin5(0,2,3):  -48 y(2,0,3) + v(0,2,3) - u(0,2,3) >= -48
MCLin6(2,0,3):  u(2,0,3) >= -0
MCLin7(2,0,3):  -38 y(0,2,3) - u(2,0,3) <= -0
MCLin8(2,0,3):  42 y(0,2,3) + v(2,0,3) - u(2,0,3) <= 42
MCLin9(2,0,3):  42 y(0,2,3) - u(2,0,3) >= -0
MCLin10(2,0,3):  -38 y(0,2,3) + v(2,0,3) - u(2,0,3) >= -38
MCLinV(1,2,0):  x(1,0) - v(1,2,0) - x(2,0) = 8
MCLinV(2,1,0):  - x(1,0) - v(2,1,0) + x(2,0) = 9
MCLin1(1,2,0):  u(1,2,0) >= -0
MCLin2(1,2,0):  -40 y(2,1,0) - u(1,2,0) <= -0
MCLin3(1,2,0):  27 y(2,1,0) + v(1,2,0) - u(1,2,0) <= 27
MCLin4(1,2,0):  27 y(2,1,0) - u(1,2,0) >= -0
MCLin5(1,2,0):  -40 y(2,1,0) + v(1,2,0) - u(1,2,0) >= -40
MCLin6(2,1,0):  u(2,1,0) >= -0
MCLin7(2,1,0):  -44 y(1,2,0) - u(2,1,0) <= -0
MCLin8(2,1,0):  23 y(1,2,0) + v(2,1,0) - u(2,1,0) <= 23
MCLin9(2,1,0):  23 y(1,2,0) - u(2,1,0) >= -0
MCLin10(2,1,0):  -44 y(1,2,0) + v(2,1,0) - u(2,1,0) >= -44
MCLinV(1,2,1):  x(1,1) - v(1,2,1) - x(2,1) = 1
MCLinV(2,1,1):  - x(1,1) - v(2,1,1) + x(2,1) = 7
MCLin1(1,2,1):  u(1,2,1) >= -0
MCLin2(1,2,1):  -42 y(2,1,1) - u(1,2,1) <= -0
MCLin3(1,2,1):  25 y(2,1,1) + v(1,2,1) - u(1,2,1) <= 25
MCLin4(1,2,1):  25 y(2,1,1) - u(1,2,1) >= -0
MCLin5(1,2,1):  -42 y(2,1,1) + v(1,2,1) - u(1,2,1) >= -42
MCLin6(2,1,1):  u(2,1,1) >= -0
MCLin7(2,1,1):  -33 y(1,2,1) - u(2,1,1) <= -0
MCLin8(2,1,1):  34 y(1,2,1) + v(2,1,1) - u(2,1,1) <= 34
MCLin9(2,1,1):  34 y(1,2,1) - u(2,1,1) >= -0
MCLin10(2,1,1):  -33 y(1,2,1) + v(2,1,1) - u(2,1,1) >= -33
MCLinV(1,2,2):  x(1,2) - v(1,2,2) - x(2,2) = 1
MCLinV(2,1,2):  - x(1,2) - v(2,1,2) + x(2,2) = 3
MCLin1(1,2,2):  u(1,2,2) >= -0
MCLin2(1,2,2):  -44 y(2,1,2) - u(1,2,2) <= -0
MCLin3(1,2,2):  23 y(2,1,2) + v(1,2,2) - u(1,2,2) <= 23
MCLin4(1,2,2):  23 y(2,1,2) - u(1,2,2) >= -0
MCLin5(1,2,2):  -44 y(2,1,2) + v(1,2,2) - u(1,2,2) >= -44
MCLin6(2,1,2):  u(2,1,2) >= -0
MCLin7(2,1,2):  -27 y(1,2,2) - u(2,1,2) <= -0
MCLin8(2,1,2):  40 y(1,2,2) + v(2,1,2) - u(2,1,2) <= 40
MCLin9(2,1,2):  40 y(1,2,2) - u(2,1,2) >= -0
MCLin10(2,1,2):  -27 y(1,2,2) + v(2,1,2) - u(2,1,2) >= -27
MCLinV(1,2,3):  x(1,3) - v(1,2,3) - x(2,3) = 2
MCLinV(2,1,3):  - x(1,3) - v(2,1,3) + x(2,3) = 8
MCLin1(1,2,3):  u(1,2,3) >= -0
MCLin2(1,2,3):  -34 y(2,1,3) - u(1,2,3) <= -0
MCLin3(1,2,3):  33 y(2,1,3) + v(1,2,3) - u(1,2,3) <= 33
MCLin4(1,2,3):  33 y(2,1,3) - u(1,2,3) >= -0
MCLin5(1,2,3):  -34 y(2,1,3) + v(1,2,3) - u(1,2,3) >= -34
MCLin6(2,1,3):  u(2,1,3) >= -0
MCLin7(2,1,3):  -43 y(1,2,3) - u(2,1,3) <= -0
MCLin8(2,1,3):  24 y(1,2,3) + v(2,1,3) - u(2,1,3) <= 24
MCLin9(2,1,3):  24 y(1,2,3) - u(2,1,3) >= -0
MCLin10(2,1,3):  -43 y(1,2,3) + v(2,1,3) - u(2,1,3) >= -43
makespan(0):  C - x(0,2) >= 5
makespan(1):  C - x(1,3) >= 8
makespan(2):  C - x(2,3) >= 2
Bounds
 0 <= C <= 53
 0 <= x(0,0) <= 39
 0 <= y(0,1,0) <= 1
 0 <= y(1,0,0) <= 1
 -45 <= v(0,1,0) <= 20
 -31 <= v(1,0,0) <= 34
 -530 <= u(0,1,0)
 -530 <= u(1,0,0)
 0 <= y(0,2,0) <= 1
 0 <= y(2,0,0) <= 1
 -50 <= v(0,2,0) <= 30
 -40 <= v(2,0,0) <= 40
 -530 <= u(0,2,0)
 -530 <= u(2,0,0)
 10 <= x(1,0) <= 36
 0 <= y(1,2,0) <= 1
 0 <= y(2,1,0) <= 1
 -40 <= v(1,2,0) <= 27
 -44 <= v(2,1,0) <= 23
 -530 <= u(1,2,0)
 -530 <= u(2,1,0)
 1 <= x(2,0) <= 42
 2 <= x(0,1) <= 41
 0 <= y(0,1,1) <= 1
 0 <= y(1,0,1) <= 1
 -31 <= v(0,1,1) <= 34
 -44 <= v(1,0,1) <= 21
 -530 <= u(0,1,1)
 -530 <= u(1,0,1)
 0 <= y(0,2,1) <= 1
 0 <= y(2,0,1) <= 1
 -40 <= v(0,2,1) <= 40
 -44 <= v(2,0,1) <= 36
 -530 <= u(0,2,1)
 -530 <= u(2,0,1)
 0 <= x(1,1) <= 26
 0 <= y(1,2,1) <= 1
 0 <= y(2,1,1) <= 1
 -42 <= v(1,2,1) <= 25
 -33 <= v(2,1,1) <= 34
 -530 <= u(1,2,1)
 -530 <= u(2,1,1)
 0 <= x(2,1) <= 41
 9 <= x(0,2) <= 48
 0 <= y(0,1,2) <= 1
 0 <= y(1,0,2) <= 1
 -27 <= v(0,1,2) <= 38
 -46 <= v(1,0,2) <= 19
 -530 <= u(0,1,2)
 -530 <= u(1,0,2)
 0 <= y(0,2,2) <= 1
 0 <= y(2,0,2) <= 1
 -42 <= v(0,2,2) <= 38
 -44 <= v(2,0,2) <= 36
 -530 <= u(0,2,2)
 -530 <= u(2,0,2)
 7 <= x(1,2) <= 33
 0 <= y(1,2,2) <= 1
 0 <= y(2,1,2) <= 1
 -44 <= v(1,2,2) <= 23
 -27 <= v(2,1,2) <= 40
 -530 <= u(1,2,2)
 -530 <= u(2,1,2)
 9 <= x(2,2) <= 50
 5 <= x(0,3) <= 44
 0 <= y(0,1,3) <= 1
 0 <= y(1,0,3) <= 1
 -48 <= v(0,1,3) <= 17
 -29 <= v(1,0,3) <= 36
 -530 <= u(0,1,3)
 -530 <= u(1,0,3)
 0 <= y(0,2,3) <= 1
 0 <= y(2,0,3) <= 1
 -48 <= v(0,2,3) <= 32
 -38 <= v(2,0,3) <= 42
 -530 <= u(0,2,3)
 -530 <= u(2,0,3)
 19 <= x(1,3) <= 45
 0 <= y(1,2,3) <= 1
 0 <= y(2,1,3) <= 1
 -34 <= v(1,2,3) <= 33
 -43 <= v(2,1,3) <= 24
 -530 <= u(1,2,3)
 -530 <= u(2,1,3)
 10 <= x(2,3) <= 51
Integers
C x(0,0) y(0,1,0) y(1,0,0) v(0,1,0) v(1,0,0) u(0,1,0) u(1,0,0) y(0,2,0) y(2,0,0) 
v(0,2,0) v(2,0,0) u(0,2,0) u(2,0,0) x(1,0) y(1,2,0) y(2,1,0) v(1,2,0) v(2,1,0) u(1,2,0) 
u(2,1,0) x(2,0) x(0,1) y(0,1,1) y(1,0,1) v(0,1,1) v(1,0,1) u(0,1,1) u(1,0,1) y(0,2,1) 
y(2,0,1) v(0,2,1) v(2,0,1) u(0,2,1) u(2,0,1) x(1,1) y(1,2,1) y(2,1,1) v(1,2,1) v(2,1,1) 
u(1,2,1) u(2,1,1) x(2,1) x(0,2) y(0,1,2) y(1,0,2) v(0,1,2) v(1,0,2) u(0,1,2) u(1,0,2) 
y(0,2,2) y(2,0,2) v(0,2,2) v(2,0,2) u(0,2,2) u(2,0,2) x(1,2) y(1,2,2) y(2,1,2) v(1,2,2) 
v(2,1,2) u(1,2,2) u(2,1,2) x(2,2) x(0,3) y(0,1,3) y(1,0,3) v(0,1,3) v(1,0,3) u(0,1,3) 
u(1,0,3) y(0,2,3) y(2,0,3) v(0,2,3) v(2,0,3) u(0,2,3) u(2,0,3) x(1,3) y(1,2,3) y(2,1,3) 
v(1,2,3) v(2,1,3) u(1,2,3) u(2,1,3) x(2,3) 
End
